NAME: test1766
TYPE: TSP
DIMENSION: 11
EDGE_WEIGHT_TYPE: EUC_2D
NODE_COORD_SECTION
1 37.009730719985214 39.962617034453416
2 20.433054245072512 67.39730163571816
3 31.16998613827562 48.72539356219413
4 69.4958236917394 73.56210263437791
5 30.45701261141751 46.66301030249348
6 9.396135693733498 65.36937089655476
7 83.3974665753734 19.758974612849755
8 67.2169265956957 64.37203457343077
9 93.79500156700922 7.987751943125476
10 4.186357403094543 81.6484272752541
11 99.01045808668053 63.15129069518015
EOF
